\ Model pathplanner
\ LP format - for model browsing. Use MPS format to capture full model detail.
Minimize
  delta_1 + delta_2 + delta_3
Subject To
 c1_1,1,1: x_1,1,1 = 1
 c1_1,2,1: x_1,2,1 = 0
 c1_1,3,1: x_1,3,1 = 0
 c2_1,2: x_1,1,2 + x_1,2,2 + x_1,3,2 = 1
 c2_1,3: x_1,1,3 + x_1,2,3 + x_1,3,3 = 1
 c3_1: x_1,3,1 + x_1,3,2 + x_1,3,3 >= 1
 c4_1: delta_1 + x_1,3,1 >= 1
 c4_2: delta_2 + x_1,3,2 >= 1
 c4_3: delta_3 + x_1,3,3 >= 1
 c5a_1,1: e_1,1,2,1 + e_1,1,1,1 = 1
 c5b_1,1: e_1,2,1,1 + e_1,2,3,1 + e_1,3,3,1 + e_1,2,2,1 + e_1,3,2,1 = 0
 c6_1,2: - delta_2 + e_1,1,2,2 + e_1,2,1,2 + e_1,1,1,2 + e_1,2,3,2
   + e_1,3,3,2 + e_1,2,2,2 + e_1,3,2,2 = 0
 c7_1,1,2: e_1,1,2,2 - e_1,2,1,1 + e_1,1,1,2 = 0
 c7_1,2,2: - e_1,1,2,1 + e_1,2,1,2 + e_1,2,3,2 + e_1,2,2,2 - e_1,3,2,1 = 0
 c7_1,3,2: - e_1,2,3,1 + e_1,3,3,2 + e_1,3,2,2 = 0
 c8_1,1: p_1,1,1 <= 1
 c8_1,2: p_1,1,2 <= 1
 c9a_1,1,2,1: x_1,1,1 + x_1,2,2 - p_1,1,1 <= 1
 c9b_1,1,1,2,1: - e_1,1,2,1 + x_1,1,1 + x_1,2,2 + p_1,1,1 <= 2
 c9c_1,1,1,2,1: e_1,1,2,1 - x_1,1,1 + p_1,1,1 <= 1
 c9d_1,1,1,2,1: e_1,1,2,1 - x_1,2,2 + p_1,1,1 <= 1
 c9a_1,1,2,2: x_1,1,2 + x_1,2,3 - p_1,1,2 <= 1
 c9b_1,1,1,2,2: - e_1,1,2,2 + x_1,1,2 + x_1,2,3 + p_1,1,2 <= 2
 c9c_1,1,1,2,2: e_1,1,2,2 - x_1,1,2 + p_1,1,2 <= 1
 c9d_1,1,1,2,2: e_1,1,2,2 - x_1,2,3 + p_1,1,2 <= 1
 c9a_1,2,1,1: x_1,1,2 + x_1,2,1 - p_1,1,1 <= 1
 c9b_1,1,2,1,1: - e_1,2,1,1 + x_1,1,2 + x_1,2,1 + p_1,1,1 <= 2
 c9c_1,1,2,1,1: e_1,2,1,1 - x_1,2,1 + p_1,1,1 <= 1
 c9d_1,1,2,1,1: e_1,2,1,1 - x_1,1,2 + p_1,1,1 <= 1
 c9a_1,2,1,2: x_1,1,3 + x_1,2,2 - p_1,1,2 <= 1
 c9b_1,1,2,1,2: - e_1,2,1,2 + x_1,1,3 + x_1,2,2 + p_1,1,2 <= 2
 c9c_1,1,2,1,2: e_1,2,1,2 - x_1,2,2 + p_1,1,2 <= 1
 c9d_1,1,2,1,2: e_1,2,1,2 - x_1,1,3 + p_1,1,2 <= 1
 c9a_1,2,3,1: x_1,2,1 + x_1,3,2 - p_1,1,1 <= 1
 c9b_1,1,2,3,1: - e_1,2,3,1 + x_1,2,1 + x_1,3,2 + p_1,1,1 <= 2
 c9c_1,1,2,3,1: e_1,2,3,1 - x_1,2,1 + p_1,1,1 <= 1
 c9d_1,1,2,3,1: e_1,2,3,1 - x_1,3,2 + p_1,1,1 <= 1
 c9a_1,2,3,2: x_1,2,2 + x_1,3,3 - p_1,1,2 <= 1
 c9b_1,1,2,3,2: - e_1,2,3,2 + x_1,2,2 + x_1,3,3 + p_1,1,2 <= 2
 c9c_1,1,2,3,2: e_1,2,3,2 - x_1,2,2 + p_1,1,2 <= 1
 c9d_1,1,2,3,2: e_1,2,3,2 - x_1,3,3 + p_1,1,2 <= 1
 c9a_1,3,2,1: x_1,2,2 + x_1,3,1 - p_1,1,1 <= 1
 c9b_1,1,3,2,1: - e_1,3,2,1 + x_1,2,2 + x_1,3,1 + p_1,1,1 <= 2
 c9c_1,1,3,2,1: e_1,3,2,1 - x_1,3,1 + p_1,1,1 <= 1
 c9d_1,1,3,2,1: e_1,3,2,1 - x_1,2,2 + p_1,1,1 <= 1
 c9a_1,3,2,2: x_1,2,3 + x_1,3,2 - p_1,1,2 <= 1
 c9b_1,1,3,2,2: - e_1,3,2,2 + x_1,2,3 + x_1,3,2 + p_1,1,2 <= 2
 c9c_1,1,3,2,2: e_1,3,2,2 - x_1,3,2 + p_1,1,2 <= 1
 c9d_1,1,3,2,2: e_1,3,2,2 - x_1,2,3 + p_1,1,2 <= 1
 c10_1,1,31: x_1,1,1 + x_1,3,2 <= 1
 c10_1,3,11: x_1,1,2 + x_1,3,1 <= 1
 c10_1,1,32: x_1,1,2 + x_1,3,3 <= 1
 c10_1,3,12: x_1,1,3 + x_1,3,2 <= 1
Bounds
Binaries
 delta_1 delta_2 delta_3 e_1,1,2,1 e_1,1,2,2 e_1,2,1,1 e_1,2,1,2 e_1,1,1,1
 e_1,1,1,2 e_1,2,3,1 e_1,2,3,2 e_1,3,3,1 e_1,3,3,2 e_1,2,2,1 e_1,2,2,2
 e_1,3,2,1 e_1,3,2,2 x_1,1,1 x_1,1,2 x_1,1,3 x_1,2,1 x_1,2,2 x_1,2,3
 x_1,3,1 x_1,3,2 x_1,3,3 p_1,1,1 p_1,1,2
End
